Minimize
  cst_0_phi_112_flop + start_0_forkC_36_flop + cst_5_phi_n568_flop + forkC_3_cst_00_flop + forkC_3_cst_54_flop + forkC_3_phiC_062_flop + load_4_MC_addr112_flop + load_7_LSQ_A107_flop + store_0_LSQ_A108_flop + store_0_LSQ_A109_flop + forkC_0_LSQ_A106_flop + branch_0_ret_0104_flop + branchC_2_sink_1115_flop + ret_0_end_0118_flop + LSQ_A_load_718_flop + LSQ_A_end_0116_flop + MC_addr_load_414_flop + MC_addr_end_0117_flop
Subject to
  timePath_cst_0_out1 <= 4
  timePath_phi_1_in3 <= 4
  8 cst_0_phi_112_flop - timePath_cst_0_out1 + timePath_phi_1_in3 >= 0
  timePath_start_0_out1 <= 4
  timePath_forkC_3_in1 <= 4
  8 start_0_forkC_36_flop - timePath_start_0_out1 + timePath_forkC_3_in1 >= 0
  timePath_cst_5_out1 <= 4
  timePath_phi_n5_in1 <= 4
  8 cst_5_phi_n568_flop - timePath_cst_5_out1 + timePath_phi_n5_in1 >= 0
  timePath_forkC_3_out1 <= 4
  timePath_cst_0_in1 <= 4
  8 forkC_3_cst_00_flop + timePath_cst_0_in1 - timePath_forkC_3_out1 >= 0
  timePath_forkC_3_out3 <= 4
  timePath_cst_5_in1 <= 4
  8 forkC_3_cst_54_flop + timePath_cst_5_in1 - timePath_forkC_3_out3 >= 0
  timePath_forkC_3_out2 <= 4
  timePath_phiC_0_in3 <= 4
  8 forkC_3_phiC_062_flop - timePath_forkC_3_out2 + timePath_phiC_0_in3 >= 0
  timePath_phi_1_out1 <= 4
  timePath_fork_0_in1 <= 4
  -timePath_phi_1_out1 + timePath_fork_0_in1 >= -8
  timePath_load_4_out1 <= 4
  timePath_fork_6_in1 <= 4
  -timePath_load_4_out1 + timePath_fork_6_in1 >= -0
  timePath_load_7_out1 <= 4
  timePath_fork_7_in1 <= 4
  -timePath_load_7_out1 + timePath_fork_7_in1 >= -0
  timePath_mul_8_out1 <= 4
  timePath_add_9_in1 <= 4
  -timePath_mul_8_out1 + timePath_add_9_in1 >= -0
  timePath_cst_1_out1 <= 4
  timePath_add_9_in2 <= 4
  -timePath_cst_1_out1 + timePath_add_9_in2 >= -0
  timePath_add_9_out1 <= 4
  timePath_mul_10_in1 <= 4
  -timePath_add_9_out1 + timePath_mul_10_in1 >= -0
  timePath_mul_10_out1 <= 4
  timePath_mul_11_in1 <= 4
  -timePath_mul_10_out1 + timePath_mul_11_in1 >= -0
  timePath_mul_11_out1 <= 4
  timePath_add_12_in1 <= 4
  -timePath_mul_11_out1 + timePath_add_12_in1 >= -0
  timePath_cst_2_out1 <= 4
  timePath_add_12_in2 <= 4
  -timePath_cst_2_out1 + timePath_add_12_in2 >= -0
  timePath_add_12_out1 <= 4
  timePath_mul_13_in1 <= 4
  -timePath_add_12_out1 + timePath_mul_13_in1 >= -0
  timePath_mul_13_out1 <= 4
  timePath_store_0_in1 <= 4
  -timePath_mul_13_out1 + timePath_store_0_in1 >= -0
  timePath_cst_3_out1 <= 4
  timePath_add_16_in2 <= 4
  -timePath_cst_3_out1 + timePath_add_16_in2 >= -0
  timePath_add_16_out1 <= 4
  timePath_fork_1_in1 <= 4
  -timePath_add_16_out1 + timePath_fork_1_in1 >= -0
  timePath_cst_4_out1 <= 4
  timePath_icmp_17_in2 <= 4
  -timePath_cst_4_out1 + timePath_icmp_17_in2 >= -0
  timePath_icmp_17_out1 <= 4
  timePath_fork_2_in1 <= 4
  -timePath_icmp_17_out1 + timePath_fork_2_in1 >= -0
  timePath_phiC_0_out1 <= 4
  timePath_forkC_4_in1 <= 4
  -timePath_phiC_0_out1 + timePath_forkC_4_in1 >= -8
  timePath_branch_0_out2 <= 4
  timePath_phi_1_in2 <= 4
  timePath_phi_1_in2 - timePath_branch_0_out2 >= -0
  timePath_branch_0_out1 <= 4
  timePath_ret_0_in1 <= 4
  8 branch_0_ret_0104_flop - timePath_branch_0_out1 + timePath_ret_0_in1 >= 0
  timePath_phi_n5_out1 <= 4
  timePath_fork_5_in1 <= 4
  -timePath_phi_n5_out1 + timePath_fork_5_in1 >= -0
  timePath_branchC_2_out2 <= 4
  timePath_phiC_0_in2 <= 4
  timePath_phiC_0_in2 - timePath_branchC_2_out2 >= -0
  timePath_branchC_2_out1 <= 4
  timePath_sink_1_in1 <= 4
  8 branchC_2_sink_1115_flop - timePath_branchC_2_out1 + timePath_sink_1_in1 >= 0
  timePath_fork_0_out2 <= 4
  timePath_load_4_in2 <= 4
  timePath_load_4_in2 - timePath_fork_0_out2 >= -0
  timePath_fork_0_out1 <= 4
  timePath_add_16_in1 <= 4
  timePath_add_16_in1 - timePath_fork_0_out1 >= -0
  timePath_fork_1_out1 <= 4
  timePath_icmp_17_in1 <= 4
  timePath_icmp_17_in1 - timePath_fork_1_out1 >= -0
  timePath_fork_1_out2 <= 4
  timePath_branch_0_in1 <= 4
  timePath_branch_0_in1 - timePath_fork_1_out2 >= -0
  timePath_fork_2_out1 <= 4
  timePath_branch_0_in2 <= 4
  timePath_branch_0_in2 - timePath_fork_2_out1 >= -0
  timePath_fork_2_out2 <= 4
  timePath_phi_n5_in2 <= 4
  timePath_phi_n5_in2 - timePath_fork_2_out2 >= -0
  timePath_fork_2_out3 <= 4
  timePath_branchC_2_in2 <= 4
  timePath_branchC_2_in2 - timePath_fork_2_out3 >= -0
  timePath_forkC_4_out1 <= 4
  timePath_cst_1_in1 <= 4
  timePath_cst_1_in1 - timePath_forkC_4_out1 >= -0
  timePath_forkC_4_out3 <= 4
  timePath_cst_2_in1 <= 4
  timePath_cst_2_in1 - timePath_forkC_4_out3 >= -0
  timePath_forkC_4_out4 <= 4
  timePath_cst_3_in1 <= 4
  timePath_cst_3_in1 - timePath_forkC_4_out4 >= -0
  timePath_forkC_4_out5 <= 4
  timePath_cst_4_in1 <= 4
  timePath_cst_4_in1 - timePath_forkC_4_out5 >= -0
  timePath_forkC_4_out6 <= 4
  timePath_forkC_0_in1 <= 4
  timePath_forkC_0_in1 - timePath_forkC_4_out6 >= -0
  timePath_forkC_4_out2 <= 4
  timePath_branchC_2_in1 <= 4
  timePath_branchC_2_in1 - timePath_forkC_4_out2 >= -0
  timePath_fork_5_out1 <= 4
  timePath_phi_1_in1 <= 4
  timePath_phi_1_in1 - timePath_fork_5_out1 >= -0
  timePath_fork_5_out2 <= 4
  timePath_phiC_0_in1 <= 4
  timePath_phiC_0_in1 - timePath_fork_5_out2 >= -0
  timePath_fork_6_out1 <= 4
  timePath_load_7_in2 <= 4
  timePath_load_7_in2 - timePath_fork_6_out1 >= -0
  timePath_fork_6_out2 <= 4
  timePath_store_0_in2 <= 4
  timePath_store_0_in2 - timePath_fork_6_out2 >= -0
  timePath_fork_7_out1 <= 4
  timePath_mul_8_in1 <= 4
  timePath_mul_8_in1 - timePath_fork_7_out1 >= -0
  timePath_fork_7_out2 <= 4
  timePath_mul_8_in2 <= 4
  timePath_mul_8_in2 - timePath_fork_7_out2 >= -0
  timePath_fork_7_out3 <= 4
  timePath_mul_10_in2 <= 4
  timePath_mul_10_in2 - timePath_fork_7_out3 >= -0
  timePath_fork_7_out4 <= 4
  timePath_mul_11_in2 <= 4
  timePath_mul_11_in2 - timePath_fork_7_out4 >= -0
  timePath_fork_7_out5 <= 4
  timePath_mul_13_in2 <= 4
  timePath_mul_13_in2 - timePath_fork_7_out5 >= -0
  timePath_ret_0_out1 <= 4
  timePath_end_0_in3 <= 4
  8 ret_0_end_0118_flop - timePath_ret_0_out1 + timePath_end_0_in3 >= 0
  -timePath_cst_0_in1 + timePath_cst_0_out1 >= 0
  -timePath_cst_5_in1 + timePath_cst_5_out1 >= 0
  -timePath_forkC_3_in1 + timePath_forkC_3_out1 >= 0
  -timePath_forkC_3_in1 + timePath_forkC_3_out2 >= 0
  -timePath_forkC_3_in1 + timePath_forkC_3_out3 >= 0
  -timePath_phi_1_in1 + timePath_phi_1_out1 >= 0.366
  -timePath_phi_1_in2 + timePath_phi_1_out1 >= 0.366
  -timePath_phi_1_in3 + timePath_phi_1_out1 >= 0.366
  timePath_load_4_out1 = 0
  timePath_load_4_out2 = 0
  timePath_load_4_in1 <= 4
  timePath_load_4_in2 <= 4
  timePath_load_7_out1 = 0
  timePath_load_7_out2 = 0
  timePath_load_7_in1 <= 4
  timePath_load_7_in2 <= 4
  timePath_mul_8_out1 = 0
  timePath_mul_8_in1 <= 4
  timePath_mul_8_in2 <= 4
  -timePath_cst_1_in1 + timePath_cst_1_out1 >= 0
  -timePath_add_9_in1 + timePath_add_9_out1 >= 1.693
  -timePath_add_9_in2 + timePath_add_9_out1 >= 1.693
  timePath_mul_10_out1 = 0
  timePath_mul_10_in1 <= 4
  timePath_mul_10_in2 <= 4
  timePath_mul_11_out1 = 0
  timePath_mul_11_in1 <= 4
  timePath_mul_11_in2 <= 4
  -timePath_cst_2_in1 + timePath_cst_2_out1 >= 0
  -timePath_add_12_in1 + timePath_add_12_out1 >= 1.693
  -timePath_add_12_in2 + timePath_add_12_out1 >= 1.693
  timePath_mul_13_out1 = 0
  timePath_mul_13_in1 <= 4
  timePath_mul_13_in2 <= 4
  -timePath_store_0_in1 + timePath_store_0_out1 >= 0
  -timePath_store_0_in2 + timePath_store_0_out1 >= 0
  -timePath_store_0_in1 + timePath_store_0_out2 >= 0
  -timePath_store_0_in2 + timePath_store_0_out2 >= 0
  -timePath_cst_3_in1 + timePath_cst_3_out1 >= 0
  -timePath_add_16_in1 + timePath_add_16_out1 >= 1.693
  -timePath_add_16_in2 + timePath_add_16_out1 >= 1.693
  -timePath_cst_4_in1 + timePath_cst_4_out1 >= 0
  -timePath_icmp_17_in1 + timePath_icmp_17_out1 >= 1.53
  -timePath_icmp_17_in2 + timePath_icmp_17_out1 >= 1.53
  -timePath_forkC_0_in1 + timePath_forkC_0_out1 >= 0
  -timePath_phiC_0_in1 + timePath_phiC_0_out1 >= 0.166
  -timePath_phiC_0_in2 + timePath_phiC_0_out1 >= 0.166
  -timePath_phiC_0_in3 + timePath_phiC_0_out1 >= 0.166
  -timePath_branch_0_in1 + timePath_branch_0_out1 >= 0
  -timePath_branch_0_in2 + timePath_branch_0_out1 >= 0
  -timePath_branch_0_in1 + timePath_branch_0_out2 >= 0
  -timePath_branch_0_in2 + timePath_branch_0_out2 >= 0
  -timePath_phi_n5_in1 + timePath_phi_n5_out1 >= 0.366
  -timePath_phi_n5_in2 + timePath_phi_n5_out1 >= 0.366
  -timePath_branchC_2_in1 + timePath_branchC_2_out1 >= 0
  -timePath_branchC_2_in2 + timePath_branchC_2_out1 >= 0
  -timePath_branchC_2_in1 + timePath_branchC_2_out2 >= 0
  -timePath_branchC_2_in2 + timePath_branchC_2_out2 >= 0
  -timePath_fork_0_in1 + timePath_fork_0_out1 >= 0
  -timePath_fork_0_in1 + timePath_fork_0_out2 >= 0
  -timePath_fork_1_in1 + timePath_fork_1_out1 >= 0
  -timePath_fork_1_in1 + timePath_fork_1_out2 >= 0
  -timePath_fork_2_in1 + timePath_fork_2_out1 >= 0
  -timePath_fork_2_in1 + timePath_fork_2_out2 >= 0
  -timePath_fork_2_in1 + timePath_fork_2_out3 >= 0
  -timePath_forkC_4_in1 + timePath_forkC_4_out1 >= 0
  -timePath_forkC_4_in1 + timePath_forkC_4_out2 >= 0
  -timePath_forkC_4_in1 + timePath_forkC_4_out3 >= 0
  -timePath_forkC_4_in1 + timePath_forkC_4_out4 >= 0
  -timePath_forkC_4_in1 + timePath_forkC_4_out5 >= 0
  -timePath_forkC_4_in1 + timePath_forkC_4_out6 >= 0
  -timePath_fork_5_in1 + timePath_fork_5_out1 >= 0
  -timePath_fork_5_in1 + timePath_fork_5_out2 >= 0
  -timePath_fork_6_in1 + timePath_fork_6_out1 >= 0
  -timePath_fork_6_in1 + timePath_fork_6_out2 >= 0
  -timePath_fork_7_in1 + timePath_fork_7_out1 >= 0
  -timePath_fork_7_in1 + timePath_fork_7_out2 >= 0
  -timePath_fork_7_in1 + timePath_fork_7_out3 >= 0
  -timePath_fork_7_in1 + timePath_fork_7_out4 >= 0
  -timePath_fork_7_in1 + timePath_fork_7_out5 >= 0
  -timePath_ret_0_in1 + timePath_ret_0_out1 >= 0
  -timePath_LSQ_A_in1 + timePath_LSQ_A_out1 >= 0
  -timePath_LSQ_A_in2 + timePath_LSQ_A_out1 >= 0
  -timePath_LSQ_A_in3 + timePath_LSQ_A_out1 >= 0
  -timePath_LSQ_A_in4 + timePath_LSQ_A_out1 >= 0
  -timePath_LSQ_A_in1 + timePath_LSQ_A_out2 >= 0
  -timePath_LSQ_A_in2 + timePath_LSQ_A_out2 >= 0
  -timePath_LSQ_A_in3 + timePath_LSQ_A_out2 >= 0
  -timePath_LSQ_A_in4 + timePath_LSQ_A_out2 >= 0
  -timePath_MC_addr_in1 + timePath_MC_addr_out1 >= 0
  -timePath_MC_addr_in1 + timePath_MC_addr_out2 >= 0
  38 cst_0_phi_112_flop - timeElastic_cst_0_out1 + timeElastic_phi_1_in3 >= 0
  38 start_0_forkC_36_flop - timeElastic_start_0_out1 + timeElastic_forkC_3_in1 >= 0
  38 cst_5_phi_n568_flop - timeElastic_cst_5_out1 + timeElastic_phi_n5_in1 >= 0
  38 forkC_3_cst_00_flop + timeElastic_cst_0_in1 - timeElastic_forkC_3_out1 >= 0
  38 forkC_3_cst_54_flop + timeElastic_cst_5_in1 - timeElastic_forkC_3_out3 >= 0
  38 forkC_3_phiC_062_flop - timeElastic_forkC_3_out2 + timeElastic_phiC_0_in3 >= 0
  -timeElastic_phi_1_out1 + timeElastic_fork_0_in1 >= -38
  -timeElastic_load_4_out1 + timeElastic_fork_6_in1 >= -0
  -timeElastic_load_7_out1 + timeElastic_fork_7_in1 >= -0
  -timeElastic_mul_8_out1 + timeElastic_add_9_in1 >= -0
  -timeElastic_cst_1_out1 + timeElastic_add_9_in2 >= -0
  -timeElastic_add_9_out1 + timeElastic_mul_10_in1 >= -0
  -timeElastic_mul_10_out1 + timeElastic_mul_11_in1 >= -0
  -timeElastic_mul_11_out1 + timeElastic_add_12_in1 >= -0
  -timeElastic_cst_2_out1 + timeElastic_add_12_in2 >= -0
  -timeElastic_add_12_out1 + timeElastic_mul_13_in1 >= -0
  -timeElastic_mul_13_out1 + timeElastic_store_0_in1 >= -0
  -timeElastic_cst_3_out1 + timeElastic_add_16_in2 >= -0
  -timeElastic_add_16_out1 + timeElastic_fork_1_in1 >= -0
  -timeElastic_cst_4_out1 + timeElastic_icmp_17_in2 >= -0
  -timeElastic_icmp_17_out1 + timeElastic_fork_2_in1 >= -0
  -timeElastic_phiC_0_out1 + timeElastic_forkC_4_in1 >= -38
  timeElastic_phi_1_in2 - timeElastic_branch_0_out2 >= -0
  38 branch_0_ret_0104_flop - timeElastic_branch_0_out1 + timeElastic_ret_0_in1 >= 0
  -timeElastic_phi_n5_out1 + timeElastic_fork_5_in1 >= -0
  timeElastic_phiC_0_in2 - timeElastic_branchC_2_out2 >= -0
  38 branchC_2_sink_1115_flop - timeElastic_branchC_2_out1 + timeElastic_sink_1_in1 >= 0
  timeElastic_load_4_in2 - timeElastic_fork_0_out2 >= -0
  timeElastic_add_16_in1 - timeElastic_fork_0_out1 >= -0
  timeElastic_icmp_17_in1 - timeElastic_fork_1_out1 >= -0
  timeElastic_branch_0_in1 - timeElastic_fork_1_out2 >= -0
  timeElastic_branch_0_in2 - timeElastic_fork_2_out1 >= -0
  timeElastic_phi_n5_in2 - timeElastic_fork_2_out2 >= -0
  timeElastic_branchC_2_in2 - timeElastic_fork_2_out3 >= -0
  timeElastic_cst_1_in1 - timeElastic_forkC_4_out1 >= -0
  timeElastic_cst_2_in1 - timeElastic_forkC_4_out3 >= -0
  timeElastic_cst_3_in1 - timeElastic_forkC_4_out4 >= -0
  timeElastic_cst_4_in1 - timeElastic_forkC_4_out5 >= -0
  timeElastic_forkC_0_in1 - timeElastic_forkC_4_out6 >= -0
  timeElastic_branchC_2_in1 - timeElastic_forkC_4_out2 >= -0
  timeElastic_phi_1_in1 - timeElastic_fork_5_out1 >= -0
  timeElastic_phiC_0_in1 - timeElastic_fork_5_out2 >= -0
  timeElastic_load_7_in2 - timeElastic_fork_6_out1 >= -0
  timeElastic_store_0_in2 - timeElastic_fork_6_out2 >= -0
  timeElastic_mul_8_in1 - timeElastic_fork_7_out1 >= -0
  timeElastic_mul_8_in2 - timeElastic_fork_7_out2 >= -0
  timeElastic_mul_10_in2 - timeElastic_fork_7_out3 >= -0
  timeElastic_mul_11_in2 - timeElastic_fork_7_out4 >= -0
  timeElastic_mul_13_in2 - timeElastic_fork_7_out5 >= -0
  38 ret_0_end_0118_flop - timeElastic_ret_0_out1 + timeElastic_end_0_in3 >= 0
  -timeElastic_cst_0_in1 + timeElastic_cst_0_out1 >= 1
  -timeElastic_cst_5_in1 + timeElastic_cst_5_out1 >= 1
  -timeElastic_forkC_3_in1 + timeElastic_forkC_3_out1 >= 1
  -timeElastic_forkC_3_in1 + timeElastic_forkC_3_out2 >= 1
  -timeElastic_forkC_3_in1 + timeElastic_forkC_3_out3 >= 1
  -timeElastic_phi_1_in1 + timeElastic_phi_1_out1 >= 1
  -timeElastic_phi_1_in2 + timeElastic_phi_1_out1 >= 1
  -timeElastic_phi_1_in3 + timeElastic_phi_1_out1 >= 1
  -timeElastic_load_4_in1 + timeElastic_load_4_out1 >= 1
  -timeElastic_load_4_in2 + timeElastic_load_4_out1 >= 1
  -timeElastic_load_4_in1 + timeElastic_load_4_out2 >= 1
  -timeElastic_load_4_in2 + timeElastic_load_4_out2 >= 1
  -timeElastic_load_7_in1 + timeElastic_load_7_out1 >= 1
  -timeElastic_load_7_in2 + timeElastic_load_7_out1 >= 1
  -timeElastic_load_7_in1 + timeElastic_load_7_out2 >= 1
  -timeElastic_load_7_in2 + timeElastic_load_7_out2 >= 1
  -timeElastic_mul_8_in1 + timeElastic_mul_8_out1 >= 1
  -timeElastic_mul_8_in2 + timeElastic_mul_8_out1 >= 1
  -timeElastic_cst_1_in1 + timeElastic_cst_1_out1 >= 1
  -timeElastic_add_9_in1 + timeElastic_add_9_out1 >= 1
  -timeElastic_add_9_in2 + timeElastic_add_9_out1 >= 1
  -timeElastic_mul_10_in1 + timeElastic_mul_10_out1 >= 1
  -timeElastic_mul_10_in2 + timeElastic_mul_10_out1 >= 1
  -timeElastic_mul_11_in1 + timeElastic_mul_11_out1 >= 1
  -timeElastic_mul_11_in2 + timeElastic_mul_11_out1 >= 1
  -timeElastic_cst_2_in1 + timeElastic_cst_2_out1 >= 1
  -timeElastic_add_12_in1 + timeElastic_add_12_out1 >= 1
  -timeElastic_add_12_in2 + timeElastic_add_12_out1 >= 1
  -timeElastic_mul_13_in1 + timeElastic_mul_13_out1 >= 1
  -timeElastic_mul_13_in2 + timeElastic_mul_13_out1 >= 1
  -timeElastic_store_0_in1 + timeElastic_store_0_out1 >= 1
  -timeElastic_store_0_in2 + timeElastic_store_0_out1 >= 1
  -timeElastic_store_0_in1 + timeElastic_store_0_out2 >= 1
  -timeElastic_store_0_in2 + timeElastic_store_0_out2 >= 1
  -timeElastic_cst_3_in1 + timeElastic_cst_3_out1 >= 1
  -timeElastic_add_16_in1 + timeElastic_add_16_out1 >= 1
  -timeElastic_add_16_in2 + timeElastic_add_16_out1 >= 1
  -timeElastic_cst_4_in1 + timeElastic_cst_4_out1 >= 1
  -timeElastic_icmp_17_in1 + timeElastic_icmp_17_out1 >= 1
  -timeElastic_icmp_17_in2 + timeElastic_icmp_17_out1 >= 1
  -timeElastic_forkC_0_in1 + timeElastic_forkC_0_out1 >= 1
  -timeElastic_phiC_0_in1 + timeElastic_phiC_0_out1 >= 1
  -timeElastic_phiC_0_in2 + timeElastic_phiC_0_out1 >= 1
  -timeElastic_phiC_0_in3 + timeElastic_phiC_0_out1 >= 1
  -timeElastic_branch_0_in1 + timeElastic_branch_0_out1 >= 1
  -timeElastic_branch_0_in2 + timeElastic_branch_0_out1 >= 1
  -timeElastic_branch_0_in1 + timeElastic_branch_0_out2 >= 1
  -timeElastic_branch_0_in2 + timeElastic_branch_0_out2 >= 1
  -timeElastic_phi_n5_in1 + timeElastic_phi_n5_out1 >= 1
  -timeElastic_phi_n5_in2 + timeElastic_phi_n5_out1 >= 1
  -timeElastic_branchC_2_in1 + timeElastic_branchC_2_out1 >= 1
  -timeElastic_branchC_2_in2 + timeElastic_branchC_2_out1 >= 1
  -timeElastic_branchC_2_in1 + timeElastic_branchC_2_out2 >= 1
  -timeElastic_branchC_2_in2 + timeElastic_branchC_2_out2 >= 1
  -timeElastic_fork_0_in1 + timeElastic_fork_0_out1 >= 1
  -timeElastic_fork_0_in1 + timeElastic_fork_0_out2 >= 1
  -timeElastic_fork_1_in1 + timeElastic_fork_1_out1 >= 1
  -timeElastic_fork_1_in1 + timeElastic_fork_1_out2 >= 1
  -timeElastic_fork_2_in1 + timeElastic_fork_2_out1 >= 1
  -timeElastic_fork_2_in1 + timeElastic_fork_2_out2 >= 1
  -timeElastic_fork_2_in1 + timeElastic_fork_2_out3 >= 1
  -timeElastic_forkC_4_in1 + timeElastic_forkC_4_out1 >= 1
  -timeElastic_forkC_4_in1 + timeElastic_forkC_4_out2 >= 1
  -timeElastic_forkC_4_in1 + timeElastic_forkC_4_out3 >= 1
  -timeElastic_forkC_4_in1 + timeElastic_forkC_4_out4 >= 1
  -timeElastic_forkC_4_in1 + timeElastic_forkC_4_out5 >= 1
  -timeElastic_forkC_4_in1 + timeElastic_forkC_4_out6 >= 1
  -timeElastic_fork_5_in1 + timeElastic_fork_5_out1 >= 1
  -timeElastic_fork_5_in1 + timeElastic_fork_5_out2 >= 1
  -timeElastic_fork_6_in1 + timeElastic_fork_6_out1 >= 1
  -timeElastic_fork_6_in1 + timeElastic_fork_6_out2 >= 1
  -timeElastic_fork_7_in1 + timeElastic_fork_7_out1 >= 1
  -timeElastic_fork_7_in1 + timeElastic_fork_7_out2 >= 1
  -timeElastic_fork_7_in1 + timeElastic_fork_7_out3 >= 1
  -timeElastic_fork_7_in1 + timeElastic_fork_7_out4 >= 1
  -timeElastic_fork_7_in1 + timeElastic_fork_7_out5 >= 1
  -timeElastic_ret_0_in1 + timeElastic_ret_0_out1 >= 1
  -timeElastic_LSQ_A_in1 + timeElastic_LSQ_A_out1 >= 1
  -timeElastic_LSQ_A_in2 + timeElastic_LSQ_A_out1 >= 1
  -timeElastic_LSQ_A_in3 + timeElastic_LSQ_A_out1 >= 1
  -timeElastic_LSQ_A_in4 + timeElastic_LSQ_A_out1 >= 1
  -timeElastic_LSQ_A_in1 + timeElastic_LSQ_A_out2 >= 1
  -timeElastic_LSQ_A_in2 + timeElastic_LSQ_A_out2 >= 1
  -timeElastic_LSQ_A_in3 + timeElastic_LSQ_A_out2 >= 1
  -timeElastic_LSQ_A_in4 + timeElastic_LSQ_A_out2 >= 1
  -timeElastic_MC_addr_in1 + timeElastic_MC_addr_out1 >= 1
  -timeElastic_MC_addr_in1 + timeElastic_MC_addr_out2 >= 1
Binary
  cst_0_phi_112_flop start_0_forkC_36_flop cst_5_phi_n568_flop forkC_3_cst_00_flop forkC_3_cst_54_flop forkC_3_phiC_062_flop load_4_MC_addr112_flop load_7_LSQ_A107_flop store_0_LSQ_A108_flop store_0_LSQ_A109_flop forkC_0_LSQ_A106_flop branch_0_ret_0104_flop branchC_2_sink_1115_flop ret_0_end_0118_flop LSQ_A_load_718_flop LSQ_A_end_0116_flop MC_addr_load_414_flop MC_addr_end_0117_flop
End
